db/data/1584629328245034899219529332165019007.z3.out
sat
-------------------
33.688870175
